networks/zoo_18_29/zoo_18_29-lower.txt
Number of groups: 7
Flow 1: {1 2 0} {2 11 0} 
Flow 2: {2 4 0} {4 13 0} 
Flow 3: {2 9 0} {9 18 0} 
Flow 4: {2 1 0} {1 10 0} 
Flow 5: {2 3 0} {3 12 0} 
Flow 7: {2 6 0} {6 15 0} 
Flow 8: {2 7 0} {7 16 0} 
Flow 10: {3 2 0} Flow 16: {6 2 0} Flow 22: {7 2 0} Flow 28: {9 2 0} Flow 29: {9 4 0} Time taken running everything: 0 seconds
