networks/zoo_18_29/zoo_18_29-lower.sol
<?xml version = "1.0" encoding="UTF-8" standalone="yes"?>
<CPLEXSolution version="1.2">
 <header
   problemName="networks/zoo_18_29/zoo_18_29-lower.lp"
   solutionName="incumbent"
   solutionIndex="-1"
   objectiveValue="8"
   solutionTypeValue="3"
   solutionTypeString="primal"
   solutionStatusValue="101"
   solutionStatusString="integer optimal solution"
   solutionMethodString="mip"
   primalFeasible="1"
   dualFeasible="1"
   MIPNodes="0"
   MIPIterations="25"
   writeLevel="3"/>
 <quality
   epInt="1.0000000000000001e-05"
   epRHS="9.9999999999999995e-07"
   maxIntInfeas="0"
   maxPrimalInfeas="0"
   maxX="1"
   maxSlack="1"/>
 <variables>
  <variable name="Y(3,9)" index="34" value="1"/>
  <variable name="Y(13,6)" index="172" value="1"/>
  <variable name="Y(14,7)" index="187" value="1"/>
  <variable name="Y(16,1)" index="210" value="1"/>
  <variable name="Y(18,3)" index="240" value="1"/>
  <variable name="Y(25,2)" index="337" value="1"/>
  <variable name="Y(28,2)" index="379" value="1"/>
  <variable name="Y(29,4)" index="395" value="1"/>
  <variable name="X(1,2,3)" index="408" value="1"/>
  <variable name="X(1,10,16)" index="450" value="1"/>
  <variable name="X(2,1,16)" index="479" value="1"/>
  <variable name="X(2,3,18)" index="510" value="1"/>
  <variable name="X(2,4,25)" index="546" value="1"/>
  <variable name="X(2,6,13)" index="563" value="1"/>
  <variable name="X(2,7,14)" index="593" value="1"/>
  <variable name="X(2,9,3)" index="611" value="1"/>
  <variable name="X(2,11,28)" index="665" value="1"/>
  <variable name="X(3,2,13)" index="679" value="1"/>
  <variable name="X(3,12,18)" index="713" value="1"/>
  <variable name="X(4,13,29)" index="753" value="1"/>
  <variable name="X(6,2,16)" index="769" value="1"/>
  <variable name="X(6,15,13)" index="795" value="1"/>
  <variable name="X(7,2,25)" index="836" value="1"/>
  <variable name="X(7,16,14)" index="854" value="1"/>
  <variable name="X(9,2,28)" index="897" value="1"/>
  <variable name="X(9,4,29)" index="927" value="1"/>
  <variable name="X(9,18,3)" index="930" value="1"/>
 </variables>
</CPLEXSolution>
